% demand
num_movements = 23;
loading_factor = [1050, 850, 1700, 1700, 800, 1550, 1600, 1050, 1400, 1750, 1200, 1100, 950, 1250, 1350, 2000, 950, 1450, 1250, 950, 1850, 1700, 1350];
pickup_time = [0, 0, 1, 1, 2, 2, 2, 2, 3, 3, 3, 3, 5, 5, 5, 6, 7, 7, 7, 8, 8, 8, 9];
delivery_time = [1, 1, 2, 3, 3, 4, 3, 3, 4, 4, 4, 4, 6, 6, 8, 8, 10, 8, 9, 10, 10, 10, 10];

% transporter definition
total_capacity = 7000;
num_decks = 3;
capacity = [3000, 1000, 3000];

% ways out of decks
num_ways_out = 1;
paths_out = array3d(decks, ways_out, decks, [
% ways out of deck d1
2, 3, 0, 

% ways out of deck d2
3, 0, 0, 

% ways out of deck d3
0, 0, 0,	

]);

